Optimizer called with the following parameters:
{'focal_plane_mask': {'field_stop_radius': None,
                      'grayscale': True,
                      'num_pix': 150,
                      'radius': 3.5},
 'image': {'bandwidth': 0.2,
           'contrast': 10,
           'iwa': 3.4,
           'num_wavelengths': 5,
           'owa': 14.0,
           'resolution': 2},
 'instrument': {'inst_name': 'USORT'},
 'lyot_stop': {'alignment_tolerance': 0,
               'filename': 'USORT/LS_USORT_hex_ID0000_OD0990_ovsamp16_N0128.fits',
               'num_lyot_stops': 1},
 'method': {'edge_width_for_prior': 2,
            'ending_scale': 1,
            'force_no_hermitian_symmetry': False,
            'force_no_x_mirror_symmetry': False,
            'force_no_y_mirror_symmetry': False,
            'initial_throughput_estimate': 1,
            'maximize_planet_throughput': True,
            'num_throughput_iterations': 2,
            'starting_scale': 1},
 'pupil': {'N': 128,
           'filename': 'USORT/TelAp_USORT_offaxis_ovsamp16_N0128.fits'},
 'solver': {'crossover': 0,
            'method': 2,
            'num_threads': 0}}

File organization:
{'analysis_dir': '/user/bnickson/GitHub/LUVex_TelAps/aplc_optimization/surveys/usort_offaxis_survey_N0128_telserv3/FPM35_IWA34/analysis',
 'drivers_dir': '/user/bnickson/GitHub/LUVex_TelAps/aplc_optimization/surveys/usort_offaxis_survey_N0128_telserv3/FPM35_IWA34/drivers',
 'input_files_dir': '/user/bnickson/GitHub/LUVex_TelAps/aplc_optimization/masks',
 'log_dir': '/user/bnickson/GitHub/LUVex_TelAps/aplc_optimization/surveys/usort_offaxis_survey_N0128_telserv3/FPM35_IWA34/logs',
 'solution_dir': '/user/bnickson/GitHub/LUVex_TelAps/aplc_optimization/surveys/usort_offaxis_survey_N0128_telserv3/FPM35_IWA34/solutions',
 'survey_dir': '/user/bnickson/GitHub/LUVex_TelAps/aplc_optimization/surveys/usort_offaxis_survey_N0128_telserv3/FPM35_IWA34'}

Telescope pupil:
   Mirror symmetry in x: yes
   Mirror symmetry in y: yes

Lyot stop #0:
   Mirror symmetry in x: yes
Lyot stop #0:
   Mirror symmetry in y: yes

Complete APLC:
   Mirror symmetry in x: yes
   Mirror symmetry in y: yes

Starting optimization at scale 1 with 2726 variables and 2905 constraints.
Creating model...
Set parameter Username
Academic license - for non-commercial use only - expires 2024-10-25
Set parameter Crossover to value 0
Set parameter Method to value 2
Calculating and adding constraints...
Wavelength 1/5; Variable 1000/2726
Wavelength 1/5; Variable 2000/2726
Wavelength 2/5; Variable 1000/2726
Wavelength 2/5; Variable 2000/2726
Wavelength 3/5; Variable 1000/2726
Wavelength 3/5; Variable 2000/2726
Wavelength 4/5; Variable 1000/2726
Wavelength 4/5; Variable 2000/2726
Wavelength 5/5; Variable 1000/2726
Wavelength 5/5; Variable 2000/2726
Start optimization...
Gurobi Optimizer version 10.0.3 build v10.0.3rc0 (linux64)

CPU model: Intel(R) Xeon(R) Gold 6146 CPU @ 3.20GHz, instruction set [SSE2|AVX|AVX2|AVX512]
Thread count: 24 physical cores, 48 logical processors, using up to 24 threads

Optimize a model with 5810 rows, 2726 columns and 15838060 nonzeros
Model fingerprint: 0x85607477
Coefficient statistics:
  Matrix range     [2e-12, 6e-04]
  Objective range  [4e-03, 1e+00]
  Bounds range     [1e+00, 1e+00]
  RHS range        [1e-05, 1e-05]
Presolve removed 0 rows and 0 columns (presolve time = 6s) ...
Presolve time: 7.16s
Presolved: 2726 rows, 8536 columns, 15840786 nonzeros
Error: invalid user locale; possible fix is to set the system environment
       variable 'LC_ALL' to a valid locale (e.g., to 'C')
Ordering time: 0.07s

Barrier statistics:
 AA' NZ     : 3.714e+06
 Factor NZ  : 3.717e+06 (roughly 34 MB of memory)
 Factor Ops : 6.756e+09 (less than 1 second per iteration)
 Threads    : 24

                  Objective                Residual
Iter       Primal          Dual         Primal    Dual     Compl     Time
   0   5.62559799e+03  0.00000000e+00  0.00e+00 0.00e+00  9.74e-01    10s
   1   3.07605102e+03  7.34668416e+02  0.00e+00 1.36e-01  3.34e-01    11s
   2   2.34916738e+03  9.66765294e+02  0.00e+00 9.93e-02  2.06e-01    12s
   3   2.03512863e+03  9.76875218e+02  0.00e+00 9.70e-02  1.73e-01    13s
   4   1.69494867e+03  1.08649596e+03  0.00e+00 6.42e-02  1.10e-01    14s
   5   1.45964677e+03  1.10735765e+03  0.00e+00 5.27e-02  7.98e-02    15s
   6   1.41081814e+03  1.10565079e+03  0.00e+00 4.86e-02  7.23e-02    15s
   7   1.32688443e+03  1.09983663e+03  0.00e+00 4.28e-02  6.06e-02    16s
   8   1.27079002e+03  1.09198002e+03  0.00e+00 3.87e-02  5.28e-02    17s
   9   1.26004782e+03  1.08860438e+03  0.00e+00 3.74e-02  5.09e-02    18s
  10   1.22019897e+03  1.08272384e+03  0.00e+00 3.52e-02  4.58e-02    18s
  11   1.19915309e+03  1.07646698e+03  0.00e+00 3.30e-02  4.24e-02    19s
  12   1.09803778e+03  1.05807549e+03  0.00e+00 2.74e-02  2.95e-02    20s
  13   1.01998558e+03  1.04692081e+03  0.00e+00 2.48e-02  2.03e-02    21s
  14   9.99566247e+02  1.04361040e+03  0.00e+00 2.41e-02  1.81e-02    22s
  15   9.90932243e+02  1.01427890e+03  0.00e+00 1.85e-02  1.46e-02    22s
  16   9.72576129e+02  1.00730804e+03  0.00e+00 1.72e-02  1.20e-02    23s
  17   9.65263808e+02  9.99340214e+02  0.00e+00 1.57e-02  1.06e-02    24s
  18   9.52898590e+02  9.87701264e+02  0.00e+00 1.36e-02  8.54e-03    25s
  19   9.45751800e+02  9.82834719e+02  0.00e+00 1.27e-02  7.40e-03    25s
  20   9.42478888e+02  9.78619277e+02  0.00e+00 1.20e-02  6.77e-03    26s
  21   9.37349344e+02  9.69971500e+02  0.00e+00 1.05e-02  5.73e-03    27s
  22   9.30433970e+02  9.65816349e+02  0.00e+00 9.73e-03  4.97e-03    27s
  23   9.22478862e+02  9.57191437e+02  0.00e+00 8.35e-03  3.65e-03    28s
  24   9.17852615e+02  9.52794430e+02  0.00e+00 7.59e-03  3.04e-03    29s
  25   9.15198746e+02  9.45872482e+02  0.00e+00 6.42e-03  2.48e-03    30s
  26   9.13952918e+02  9.35714696e+02  0.00e+00 4.76e-03  1.92e-03    30s
  27   9.12107420e+02  9.32768285e+02  0.00e+00 4.27e-03  1.62e-03    31s
  28   9.11080623e+02  9.29981794e+02  0.00e+00 3.82e-03  1.40e-03    32s
  29   9.10073178e+02  9.27957624e+02  0.00e+00 3.50e-03  1.22e-03    33s
  30   9.09490406e+02  9.17679873e+02  0.00e+00 1.87e-03  7.70e-04    34s
  31   9.08256401e+02  9.13479972e+02  0.00e+00 1.20e-03  4.94e-04    35s
  32   9.07733108e+02  9.11785867e+02  0.00e+00 9.35e-04  3.88e-04    36s
  33   9.06957152e+02  9.10538973e+02  0.00e+00 7.40e-04  2.73e-04    37s
  34   9.06626161e+02  9.08465550e+02  0.00e+00 4.13e-04  1.67e-04    37s
  35   9.06087323e+02  9.07417493e+02  0.00e+00 2.50e-04  8.14e-05    38s
  36   9.05948801e+02  9.06420506e+02  0.00e+00 9.35e-05  3.28e-05    39s
  37   9.05889913e+02  9.06049385e+02  0.00e+00 3.52e-05  1.40e-05    40s
  38   9.05859943e+02  9.05929206e+02  2.17e-06 1.62e-05  6.79e-06    41s
  39   9.05845224e+02  9.05889842e+02  3.17e-06 9.95e-06  3.98e-06    42s
  40   9.05833280e+02  9.05853531e+02  4.09e-06 4.19e-06  1.55e-06    43s
  41   9.05833203e+02  9.05849071e+02  7.26e-06 3.48e-06  1.37e-06    44s
  42   9.05828746e+02  9.05831318e+02  2.67e-06 6.72e-07  3.09e-07    46s
  43   9.05828723e+02  9.05830386e+02  3.40e-06 5.18e-07  2.66e-07    48s
  44   9.05828678e+02  9.05829123e+02  4.03e-06 3.07e-07  2.05e-07    49s
  45   9.05828613e+02  9.05828551e+02  6.66e-06 2.13e-07  1.75e-07    50s
  46   9.05828527e+02  9.05828468e+02  1.07e-05 2.00e-07  1.67e-07    51s
  47   9.05828403e+02  9.05828269e+02  1.10e-05 1.67e-07  1.52e-07    52s
  48   9.05828129e+02  9.05827871e+02  1.65e-05 1.02e-07  1.15e-07    53s
  49   9.05827927e+02  9.05827782e+02  1.62e-05 8.74e-08  9.28e-08    54s
  50   9.05827866e+02  9.05827689e+02  1.94e-05 7.20e-08  8.57e-08    55s
  51   9.05827962e+02  9.05827686e+02  3.76e-05 7.15e-08  8.51e-08    56s
  52   9.05827840e+02  9.05827635e+02  3.12e-05 6.30e-08  7.82e-08    58s
  53   9.05827696e+02  9.05827597e+02  3.11e-05 5.68e-08  6.63e-08    59s
  54   9.05827640e+02  9.05827543e+02  2.63e-05 4.80e-08  5.27e-08    60s
  55   9.05827582e+02  9.05827382e+02  2.51e-05 2.16e-08  3.55e-08    61s
  56   9.05827567e+02  9.05827357e+02  3.22e-05 1.75e-08  3.32e-08    63s
  57   9.05827491e+02  9.05827352e+02  3.69e-05 1.67e-08  3.04e-08    64s
  58   9.05827523e+02  9.05827332e+02  3.44e-05 1.35e-08  2.40e-08    65s
  59   9.05827723e+02  9.05827332e+02  3.80e-05 1.34e-08  2.36e-08    66s
  60   9.05827836e+02  9.05827326e+02  6.87e-05 1.24e-08  1.73e-08    67s
  61   9.05827985e+02  9.05827306e+02  3.76e-05 9.10e-09  1.33e-08    68s
  62   9.05827953e+02  9.05827295e+02  3.84e-05 7.31e-09  1.21e-08    70s
  63   9.05828077e+02  9.05827295e+02  3.75e-05 7.24e-09  1.18e-08    71s
  64   9.05828105e+02  9.05827294e+02  3.18e-05 7.10e-09  1.16e-08    72s
  65   9.05827945e+02  9.05827289e+02  3.39e-05 6.30e-09  1.11e-08    73s
  66   9.05828021e+02  9.05827287e+02  6.92e-05 6.09e-09  1.05e-08    74s
  67   9.05828085e+02  9.05827287e+02  5.85e-05 6.09e-09  1.05e-08    75s
  68   9.05828242e+02  9.05827286e+02  4.95e-05 5.85e-09  1.03e-08    77s
  69   9.05828313e+02  9.05827283e+02  5.40e-05 5.24e-09  9.89e-09    78s
  70   9.05828231e+02  9.05827281e+02  5.29e-05 5.02e-09  9.07e-09    80s
  71   9.05828136e+02  9.05827279e+02  5.53e-05 4.74e-09  8.83e-09    81s
  72   9.05827822e+02  9.05827274e+02  4.73e-05 3.77e-09  6.93e-09    82s
  73   9.05827732e+02  9.05827272e+02  3.78e-05 3.49e-09  5.30e-09    84s
  74   9.05827727e+02  9.05827272e+02  3.82e-05 3.49e-09  5.30e-09    85s
  75   9.05827762e+02  9.05827272e+02  3.87e-05 3.48e-09  5.28e-09    86s
  76   9.05827612e+02  9.05827264e+02  4.54e-05 2.13e-09  3.46e-09    87s
  77   9.05827243e+02  9.05827259e+02  6.29e-05 1.24e-09  2.02e-09    89s
  78   9.05827067e+02  9.05827257e+02  7.27e-05 1.02e-09  1.41e-09    92s
  79   9.05827184e+02  9.05827252e+02  6.35e-05 2.13e-10  1.01e-09    93s
  80   9.05827074e+02  9.05827252e+02  1.02e-04 2.08e-10  9.64e-10    95s
  81   9.05826668e+02  9.05827252e+02  1.13e-04 2.03e-10  9.13e-10    96s
  82   9.05826628e+02  9.05827252e+02  1.28e-04 1.85e-10  7.24e-10    97s
  83   9.05826764e+02  9.05827250e+02  8.22e-05 1.14e-11  5.36e-10   100s
  84   9.05826802e+02  9.05827250e+02  6.93e-05 9.55e-12  4.61e-10   102s
  85   9.05827111e+02  9.05827250e+02  6.31e-05 9.45e-12  4.58e-10   102s
  86   9.05827095e+02  9.05827250e+02  5.96e-05 8.32e-12  4.25e-10   104s
  87   9.05827101e+02  9.05827250e+02  7.53e-05 8.31e-12  4.17e-10   105s
  88   9.05827124e+02  9.05827250e+02  5.41e-05 2.31e-12  3.55e-10   106s
  89   9.05827125e+02  9.05827250e+02  5.34e-05 2.31e-12  3.53e-10   107s
  90   9.05827090e+02  9.05827250e+02  5.38e-05 2.39e-12  3.55e-10   108s
  91   9.05827643e+02  9.05827250e+02  8.69e-05 1.86e-12  1.17e-10   109s
  92   9.05827646e+02  9.05827250e+02  8.40e-05 1.80e-12  1.12e-10   110s
  93   9.05827667e+02  9.05827250e+02  8.51e-05 1.54e-12  1.11e-10   111s
  94   9.05827666e+02  9.05827249e+02  9.46e-05 5.35e-13  4.61e-11   115s
  95   9.05827872e+02  9.05827249e+02  5.94e-05 3.43e-13  2.26e-11   116s

Barrier performed 95 iterations in 115.88 seconds (61.69 work units)
Sub-optimal termination - objective 9.05828723e+02

Optimization finished!
Restarting optimization for throughput iteration 1...
Gurobi Optimizer version 10.0.3 build v10.0.3rc0 (linux64)

CPU model: Intel(R) Xeon(R) Gold 6146 CPU @ 3.20GHz, instruction set [SSE2|AVX|AVX2|AVX512]
Thread count: 24 physical cores, 48 logical processors, using up to 24 threads

Optimize a model with 5810 rows, 2726 columns and 15838060 nonzeros
Model fingerprint: 0x30ab3704
Coefficient statistics:
  Matrix range     [2e-12, 6e-04]
  Objective range  [4e-03, 1e+00]
  Bounds range     [1e+00, 1e+00]
  RHS range        [4e-06, 4e-06]
Presolve removed 0 rows and 0 columns (presolve time = 6s) ...
Presolve time: 7.19s
Presolved: 2726 rows, 8536 columns, 15840786 nonzeros
Ordering time: 0.07s

Barrier statistics:
 AA' NZ     : 3.714e+06
 Factor NZ  : 3.717e+06 (roughly 34 MB of memory)
 Factor Ops : 6.756e+09 (less than 1 second per iteration)
 Threads    : 24

                  Objective                Residual
Iter       Primal          Dual         Primal    Dual     Compl     Time
   0   5.53170860e+03  0.00000000e+00  0.00e+00 0.00e+00  9.63e-01    10s
   1   3.00211711e+03  6.60585763e+02  0.00e+00 1.41e-01  3.44e-01    11s
   2   2.57933271e+03  8.58391496e+02  0.00e+00 1.13e-01  2.57e-01    12s
   3   1.90736965e+03  9.80477154e+02  0.00e+00 9.14e-02  1.65e-01    13s
   4   1.59394845e+03  1.02453139e+03  0.00e+00 7.00e-02  1.22e-01    14s
   5   1.39127954e+03  1.04169699e+03  0.00e+00 5.91e-02  9.60e-02    15s
   6   1.23979537e+03  1.04187204e+03  0.00e+00 5.07e-02  7.56e-02    15s
   7   1.05741037e+03  1.02106510e+03  0.00e+00 3.70e-02  4.79e-02    16s
   8   1.01818987e+03  1.00531742e+03  0.00e+00 3.27e-02  4.09e-02    17s
   9   9.92851421e+02  1.00007959e+03  0.00e+00 3.15e-02  3.76e-02    18s
  10   9.67904025e+02  9.84630387e+02  0.00e+00 2.86e-02  3.33e-02    18s
  11   9.40499001e+02  9.78491094e+02  0.00e+00 2.74e-02  2.98e-02    19s
  12   9.14876129e+02  9.64849012e+02  0.00e+00 2.48e-02  2.53e-02    20s
  13   8.89475048e+02  9.51530860e+02  0.00e+00 2.24e-02  2.11e-02    20s
  14   8.81408990e+02  9.45180523e+02  0.00e+00 2.13e-02  1.96e-02    21s
  15   8.68643679e+02  9.09915925e+02  0.00e+00 1.53e-02  1.41e-02    22s
  16   8.62399565e+02  9.06135591e+02  0.00e+00 1.47e-02  1.29e-02    22s
  17   8.53082825e+02  8.91485982e+02  0.00e+00 1.23e-02  1.02e-02    23s
  18   8.47717051e+02  8.86869293e+02  0.00e+00 1.16e-02  9.00e-03    24s
  19   8.41506049e+02  8.70372495e+02  0.00e+00 8.91e-03  6.74e-03    25s
  20   8.37342568e+02  8.66308731e+02  0.00e+00 8.25e-03  5.86e-03    25s
  21   8.33661321e+02  8.59803601e+02  0.00e+00 7.16e-03  4.93e-03    26s
  22   8.31751505e+02  8.47852935e+02  0.00e+00 5.37e-03  3.97e-03    27s
  23   8.27097146e+02  8.44813823e+02  0.00e+00 4.87e-03  3.14e-03    28s
  24   8.23165140e+02  8.34051610e+02  0.00e+00 3.21e-03  2.06e-03    28s
  25   8.20060039e+02  8.27799912e+02  0.00e+00 2.25e-03  1.39e-03    29s
  26   8.18564112e+02  8.23510811e+02  0.00e+00 1.60e-03  1.02e-03    30s
  27   8.17310281e+02  8.21536956e+02  0.00e+00 1.31e-03  8.01e-04    31s
  28   8.14908854e+02  8.17471263e+02  0.00e+00 6.77e-04  3.68e-04    31s
  29   8.14022520e+02  8.16234490e+02  0.00e+00 4.87e-04  2.28e-04    32s
  30   8.13844691e+02  8.15252671e+02  0.00e+00 3.40e-04  1.71e-04    33s
  31   8.13487397e+02  8.14899268e+02  0.00e+00 2.86e-04  1.23e-04    34s
  32   8.13262581e+02  8.14030566e+02  0.00e+00 1.56e-04  6.66e-05    34s
  33   8.13084107e+02  8.13446172e+02  0.00e+00 6.82e-05  2.68e-05    35s
  34   8.13050893e+02  8.13136100e+02  0.00e+00 2.16e-05  1.11e-05    36s
  35   8.13037949e+02  8.13079249e+02  0.00e+00 1.28e-05  7.42e-06    37s
  36   8.13018169e+02  8.13032244e+02  8.82e-07 5.64e-06  3.64e-06    38s
  37   8.13017119e+02  8.13018531e+02  1.02e-06 3.55e-06  2.95e-06    39s
  38   8.13013836e+02  8.13006774e+02  3.08e-06 1.74e-06  2.14e-06    40s
  39   8.13009813e+02  8.13003124e+02  4.31e-06 1.18e-06  1.61e-06    41s
  40   8.13008969e+02  8.12999909e+02  6.93e-06 6.75e-07  1.39e-06    42s
  41   8.13006862e+02  8.12998259e+02  1.21e-05 4.21e-07  1.13e-06    43s
  42   8.13006158e+02  8.12997947e+02  1.38e-05 3.71e-07  1.06e-06    44s
  43   8.13005670e+02  8.12997842e+02  2.15e-05 3.55e-07  1.01e-06    45s
  44   8.13004924e+02  8.12997629e+02  3.37e-05 3.22e-07  9.26e-07    46s
  45   8.13003245e+02  8.12997453e+02  3.57e-05 2.94e-07  7.66e-07    47s
  46   8.13002575e+02  8.12997376e+02  3.98e-05 2.81e-07  7.10e-07    48s
  47   8.13001023e+02  8.12997269e+02  6.74e-05 2.65e-07  5.82e-07    49s
  48   8.13000309e+02  8.12997000e+02  5.79e-05 2.23e-07  4.98e-07    50s
  49   8.13000372e+02  8.12996993e+02  5.99e-05 2.21e-07  4.96e-07    51s
  50   8.13000222e+02  8.12996921e+02  5.82e-05 2.10e-07  4.76e-07    52s
  51   8.13000227e+02  8.12996921e+02  5.69e-05 2.10e-07  4.66e-07    53s
  52   8.12999404e+02  8.12996647e+02  4.83e-05 1.67e-07  4.11e-07    55s
  53   8.12999182e+02  8.12996576e+02  4.37e-05 1.56e-07  3.93e-07    56s
  54   8.12999053e+02  8.12996542e+02  4.27e-05 1.50e-07  3.79e-07    57s
  55   8.12998978e+02  8.12996349e+02  4.39e-05 1.21e-07  3.24e-07    58s
  56   8.12998944e+02  8.12996332e+02  4.75e-05 1.18e-07  3.12e-07    59s
  57   8.12998766e+02  8.12996295e+02  4.66e-05 1.12e-07  3.00e-07    60s
  58   8.12998603e+02  8.12996250e+02  5.45e-05 1.05e-07  2.83e-07    61s
  59   8.12998680e+02  8.12996249e+02  5.96e-05 1.05e-07  2.83e-07    62s
  60   8.12998437e+02  8.12996156e+02  7.71e-05 9.02e-08  2.48e-07    63s
  61   8.12998421e+02  8.12996144e+02  8.57e-05 8.81e-08  2.43e-07    64s
  62   8.12998566e+02  8.12996144e+02  1.01e-04 8.81e-08  2.43e-07    65s
  63   8.12998349e+02  8.12996092e+02  1.02e-04 7.99e-08  2.31e-07    66s
  64   8.12998314e+02  8.12996092e+02  1.01e-04 7.98e-08  2.31e-07    68s
  65   8.12998252e+02  8.12996079e+02  1.07e-04 7.78e-08  2.25e-07    69s
  66   8.12998174e+02  8.12996069e+02  1.04e-04 7.61e-08  2.19e-07    70s
  67   8.12997794e+02  8.12996043e+02  9.95e-05 7.19e-08  1.94e-07    70s
  68   8.12997640e+02  8.12996021e+02  1.12e-04 6.85e-08  1.86e-07    71s
  69   8.12997735e+02  8.12996021e+02  1.10e-04 6.85e-08  1.86e-07    73s
  70   8.12997572e+02  8.12996005e+02  1.21e-04 6.59e-08  1.81e-07    74s
  71   8.12997367e+02  8.12995979e+02  1.18e-04 6.18e-08  1.68e-07    75s
  72   8.12997443e+02  8.12995973e+02  1.46e-04 6.07e-08  1.65e-07    76s
  73   8.12997407e+02  8.12995960e+02  1.49e-04 5.87e-08  1.54e-07    76s
  74   8.12997334e+02  8.12995945e+02  1.42e-04 5.63e-08  1.41e-07    77s
  75   8.12997180e+02  8.12995924e+02  1.32e-04 5.29e-08  1.36e-07    78s
  76   8.12997133e+02  8.12995907e+02  1.31e-04 5.02e-08  1.32e-07    80s
  77   8.12996884e+02  8.12995879e+02  1.12e-04 4.57e-08  1.20e-07    81s
  78   8.12997006e+02  8.12995874e+02  1.09e-04 4.49e-08  1.18e-07    82s
  79   8.12996791e+02  8.12995822e+02  1.03e-04 3.66e-08  1.04e-07    83s
  80   8.12996735e+02  8.12995822e+02  1.05e-04 3.66e-08  1.04e-07    84s
  81   8.12996752e+02  8.12995821e+02  1.12e-04 3.64e-08  1.02e-07    85s
  82   8.12996668e+02  8.12995811e+02  1.01e-04 3.48e-08  9.64e-08    86s
  83   8.12996584e+02  8.12995811e+02  1.02e-04 3.48e-08  9.61e-08    87s
  84   8.12996669e+02  8.12995806e+02  1.09e-04 3.40e-08  9.15e-08    88s
  85   8.12996607e+02  8.12995789e+02  1.09e-04 3.12e-08  8.60e-08    89s
  86   8.12996564e+02  8.12995787e+02  1.08e-04 3.10e-08  8.55e-08    91s
  87   8.12996464e+02  8.12995787e+02  1.09e-04 3.10e-08  8.55e-08    91s
  88   8.12996438e+02  8.12995783e+02  1.03e-04 3.03e-08  8.39e-08    92s
  89   8.12996436e+02  8.12995781e+02  1.08e-04 3.00e-08  8.23e-08    93s
  90   8.12996446e+02  8.12995780e+02  1.23e-04 2.98e-08  8.19e-08    94s
  91   8.12995881e+02  8.12995774e+02  1.31e-04 2.90e-08  7.55e-08    95s
  92   8.12995943e+02  8.12995769e+02  1.18e-04 2.81e-08  7.05e-08    97s
  93   8.12996025e+02  8.12995760e+02  1.27e-04 2.67e-08  6.74e-08    98s
  94   8.12995980e+02  8.12995756e+02  1.13e-04 2.61e-08  6.41e-08    99s
  95   8.12996374e+02  8.12995733e+02  1.11e-04 2.25e-08  5.56e-08   100s
  96   8.12996429e+02  8.12995731e+02  1.04e-04 2.21e-08  5.50e-08   101s
  97   8.12996298e+02  8.12995726e+02  1.00e-04 2.13e-08  5.31e-08   102s
  98   8.12996240e+02  8.12995720e+02  9.15e-05 2.04e-08  5.02e-08   103s
  99   8.12996140e+02  8.12995713e+02  7.29e-05 1.93e-08  4.51e-08   104s
 100   8.12996122e+02  8.12995712e+02  7.77e-05 1.91e-08  4.33e-08   106s
 101   8.12996185e+02  8.12995712e+02  7.97e-05 1.90e-08  4.32e-08   107s
 102   8.12996204e+02  8.12995711e+02  7.73e-05 1.90e-08  4.31e-08   108s
 103   8.12996176e+02  8.12995686e+02  6.69e-05 1.49e-08  3.98e-08   110s
 104   8.12996633e+02  8.12995672e+02  2.56e-04 1.26e-08  3.15e-08   111s
 105   8.12996733e+02  8.12995672e+02  2.59e-04 1.26e-08  3.15e-08   112s
 106   8.12996669e+02  8.12995671e+02  2.57e-04 1.26e-08  3.12e-08   113s
 107   8.12996515e+02  8.12995668e+02  2.47e-04 1.21e-08  2.90e-08   115s
 108   8.12996067e+02  8.12995650e+02  1.94e-04 9.29e-09  2.20e-08   118s
 109   8.12995921e+02  8.12995649e+02  1.82e-04 9.14e-09  2.10e-08   119s
 110   8.12995931e+02  8.12995649e+02  1.83e-04 9.13e-09  2.10e-08   120s
 111   8.12995931e+02  8.12995641e+02  1.56e-04 7.87e-09  1.93e-08   122s
 112   8.12995968e+02  8.12995640e+02  1.49e-04 7.76e-09  1.90e-08   123s
 113   8.12995928e+02  8.12995640e+02  1.46e-04 7.62e-09  1.88e-08   124s
 114   8.12995904e+02  8.12995638e+02  1.50e-04 7.37e-09  1.86e-08   124s
 115   8.12995948e+02  8.12995638e+02  1.48e-04 7.36e-09  1.85e-08   125s
 116   8.12995926e+02  8.12995638e+02  1.46e-04 7.25e-09  1.83e-08   126s
 117   8.12996015e+02  8.12995637e+02  1.45e-04 7.22e-09  1.83e-08   127s
 118   8.12995959e+02  8.12995637e+02  1.41e-04 7.18e-09  1.79e-08   129s
 119   8.12995989e+02  8.12995636e+02  1.36e-04 7.03e-09  1.73e-08   130s
 120   8.12995967e+02  8.12995635e+02  1.34e-04 6.87e-09  1.70e-08   130s
 121   8.12995933e+02  8.12995635e+02  1.32e-04 6.83e-09  1.70e-08   131s
 122   8.12995427e+02  8.12995629e+02  1.20e-04 5.94e-09  1.47e-08   133s
 123   8.12995567e+02  8.12995628e+02  1.22e-04 5.80e-09  1.42e-08   134s
 124   8.12995714e+02  8.12995626e+02  8.71e-05 5.50e-09  1.29e-08   135s
 125   8.12995709e+02  8.12995626e+02  8.18e-05 5.49e-09  1.29e-08   136s
 126   8.12995838e+02  8.12995625e+02  1.01e-04 5.30e-09  1.27e-08   136s
 127   8.12995815e+02  8.12995625e+02  1.02e-04 5.29e-09  1.27e-08   137s
 128   8.12995626e+02  8.12995624e+02  9.98e-05 5.17e-09  1.23e-08   138s
 129   8.12995647e+02  8.12995623e+02  1.18e-04 4.92e-09  1.20e-08   139s
 130   8.12995601e+02  8.12995622e+02  1.17e-04 4.73e-09  1.15e-08   140s
 131   8.12995496e+02  8.12995620e+02  1.02e-04 4.45e-09  1.08e-08   141s
 132   8.12995188e+02  8.12995618e+02  6.66e-05 4.12e-09  8.99e-09   142s
 133   8.12995169e+02  8.12995615e+02  6.42e-05 3.81e-09  8.26e-09   144s
 134   8.12995185e+02  8.12995614e+02  8.26e-05 3.63e-09  6.24e-09   145s
 135   8.12995186e+02  8.12995614e+02  7.96e-05 3.63e-09  6.24e-09   146s
 136   8.12995062e+02  8.12995613e+02  8.23e-05 3.49e-09  5.95e-09   147s
 137   8.12995074e+02  8.12995612e+02  7.05e-05 3.32e-09  5.75e-09   148s
 138   8.12995068e+02  8.12995612e+02  6.95e-05 3.29e-09  5.66e-09   148s
 139   8.12995049e+02  8.12995612e+02  6.46e-05 3.28e-09  5.65e-09   149s
 140   8.12995050e+02  8.12995612e+02  6.52e-05 3.28e-09  5.65e-09   150s
 141   8.12995059e+02  8.12995611e+02  6.53e-05 3.16e-09  5.58e-09   151s
 142   8.12995080e+02  8.12995608e+02  7.43e-05 2.82e-09  5.35e-09   153s
 143   8.12995063e+02  8.12995608e+02  7.15e-05 2.79e-09  5.32e-09   154s
 144   8.12995076e+02  8.12995608e+02  7.47e-05 2.74e-09  5.26e-09   156s
 145   8.12994957e+02  8.12995607e+02  7.58e-05 2.73e-09  5.16e-09   157s
 146   8.12994985e+02  8.12995606e+02  8.30e-05 2.50e-09  4.74e-09   159s
 147   8.12995309e+02  8.12995605e+02  9.86e-05 2.30e-09  4.15e-09   161s
 148   8.12995299e+02  8.12995605e+02  9.84e-05 2.27e-09  4.12e-09   162s
 149   8.12995227e+02  8.12995605e+02  9.81e-05 2.19e-09  3.44e-09   163s
 150   8.12995200e+02  8.12995604e+02  9.76e-05 2.08e-09  3.22e-09   164s
 151   8.12995192e+02  8.12995603e+02  9.49e-05 1.93e-09  3.12e-09   166s
 152   8.12995228e+02  8.12995603e+02  9.19e-05 1.91e-09  3.07e-09   166s
 153   8.12995161e+02  8.12995603e+02  9.11e-05 1.91e-09  3.07e-09   167s
 154   8.12995160e+02  8.12995603e+02  9.08e-05 1.89e-09  3.06e-09   168s
 155   8.12995140e+02  8.12995603e+02  9.08e-05 1.89e-09  3.06e-09   170s
 156   8.12994980e+02  8.12995603e+02  9.80e-05 1.87e-09  2.89e-09   172s
 157   8.12994982e+02  8.12995603e+02  9.77e-05 1.84e-09  2.88e-09   173s
 158   8.12995004e+02  8.12995603e+02  9.83e-05 1.76e-09  2.81e-09   174s
 159   8.12995108e+02  8.12995603e+02  1.41e-04 1.76e-09  2.68e-09   175s
 160   8.12994941e+02  8.12995596e+02  1.41e-04 8.75e-10  2.00e-09   177s
 161   8.12994942e+02  8.12995596e+02  1.41e-04 8.75e-10  2.00e-09   178s
 162   8.12994930e+02  8.12995596e+02  1.49e-04 8.73e-10  1.97e-09   180s
 163   8.12995314e+02  8.12995596e+02  1.45e-04 7.86e-10  1.84e-09   181s
 164   8.12995417e+02  8.12995594e+02  1.06e-04 6.79e-10  1.61e-09   182s
 165   8.12995537e+02  8.12995594e+02  9.85e-05 6.37e-10  1.56e-09   184s
 166   8.12995586e+02  8.12995594e+02  9.98e-05 5.85e-10  1.53e-09   185s
 167   8.12995493e+02  8.12995594e+02  1.05e-04 5.82e-10  1.52e-09   186s
 168   8.12995504e+02  8.12995593e+02  1.03e-04 5.21e-10  1.38e-09   188s
 169   8.12995594e+02  8.12995593e+02  9.85e-05 4.92e-10  1.35e-09   189s
 170   8.12995700e+02  8.12995593e+02  1.09e-04 4.85e-10  1.29e-09   191s
 171   8.12995800e+02  8.12995593e+02  1.02e-04 4.83e-10  1.28e-09   192s
 172   8.12995588e+02  8.12995593e+02  1.02e-04 4.64e-10  1.21e-09   193s
 173   8.12995586e+02  8.12995593e+02  1.10e-04 4.64e-10  1.21e-09   193s
 174   8.12995603e+02  8.12995593e+02  1.10e-04 4.64e-10  1.20e-09   194s
 175   8.12995559e+02  8.12995593e+02  1.01e-04 4.06e-10  1.17e-09   196s
 176   8.12995360e+02  8.12995592e+02  1.34e-04 3.54e-10  1.04e-09   197s
 177   8.12995404e+02  8.12995592e+02  1.20e-04 3.31e-10  9.74e-10   199s
 178   8.12995548e+02  8.12995592e+02  1.26e-04 3.31e-10  9.71e-10   200s
 179   8.12995609e+02  8.12995592e+02  1.29e-04 3.31e-10  9.72e-10   201s
 180   8.12995609e+02  8.12995592e+02  1.28e-04 3.31e-10  9.70e-10   202s
 181   8.12995415e+02  8.12995592e+02  1.24e-04 3.06e-10  9.02e-10   204s
 182   8.12995417e+02  8.12995592e+02  1.18e-04 2.47e-10  7.20e-10   205s
 183   8.12995526e+02  8.12995591e+02  1.13e-04 2.46e-10  7.01e-10   207s
 184   8.12995442e+02  8.12995592e+02  1.31e-04 2.22e-10  5.46e-10   208s
 185   8.12995891e+02  8.12995591e+02  1.14e-04 2.14e-10  4.54e-10   210s
 186   8.12995790e+02  8.12995591e+02  6.51e-05 1.87e-10  3.39e-10   212s
 187   8.12995877e+02  8.12995591e+02  6.23e-05 1.85e-10  3.36e-10   214s
 188   8.12995927e+02  8.12995591e+02  6.80e-05 1.83e-10  3.27e-10   215s
 189   8.12995933e+02  8.12995591e+02  6.73e-05 1.83e-10  3.27e-10   216s
 190   8.12996013e+02  8.12995591e+02  6.96e-05 1.81e-10  3.12e-10   217s
 191   8.12996040e+02  8.12995591e+02  6.89e-05 1.80e-10  3.06e-10   218s
 192   8.12996082e+02  8.12995591e+02  7.09e-05 1.71e-10  2.93e-10   220s
 193   8.12996062e+02  8.12995591e+02  6.99e-05 1.70e-10  2.87e-10   221s
 194   8.12996011e+02  8.12995591e+02  6.34e-05 1.66e-10  2.71e-10   221s
 195   8.12996040e+02  8.12995591e+02  6.64e-05 1.65e-10  2.70e-10   223s
 196   8.12996070e+02  8.12995591e+02  6.91e-05 1.65e-10  2.69e-10   223s
 197   8.12996088e+02  8.12995591e+02  6.48e-05 1.63e-10  2.60e-10   224s
 198   8.12996017e+02  8.12995590e+02  7.72e-05 1.60e-10  2.59e-10   225s
 199   8.12996046e+02  8.12995590e+02  7.57e-05 1.52e-10  2.49e-10   226s
 200   8.12996072e+02  8.12995590e+02  7.43e-05 1.52e-10  2.47e-10   227s
 201   8.12996070e+02  8.12995590e+02  7.37e-05 1.52e-10  2.48e-10   228s
 202   8.12996115e+02  8.12995590e+02  7.29e-05 1.51e-10  2.46e-10   229s
 203   8.12996027e+02  8.12995590e+02  8.36e-05 1.47e-10  2.39e-10   230s
 204   8.12995956e+02  8.12995590e+02  8.54e-05 1.46e-10  2.35e-10   232s
 205   8.12995952e+02  8.12995590e+02  8.72e-05 1.45e-10  2.34e-10   233s
 206   8.12995834e+02  8.12995590e+02  1.13e-04 1.22e-10  2.25e-10   235s
 207   8.12995809e+02  8.12995590e+02  1.17e-04 1.22e-10  2.24e-10   237s
 208   8.12995999e+02  8.12995590e+02  8.03e-05 1.09e-10  1.73e-10   238s
 209   8.12995957e+02  8.12995590e+02  7.95e-05 1.07e-10  1.70e-10   239s
 210   8.12995773e+02  8.12995589e+02  7.58e-05 8.10e-11  1.41e-10   241s
 211   8.12995897e+02  8.12995589e+02  8.98e-05 7.62e-11  1.31e-10   242s
 212   8.12995865e+02  8.12995589e+02  8.88e-05 7.27e-11  1.28e-10   242s
 213   8.12995820e+02  8.12995589e+02  8.50e-05 7.14e-11  1.19e-10   243s
 214   8.12995798e+02  8.12995589e+02  9.02e-05 7.14e-11  1.19e-10   244s
 215   8.12995793e+02  8.12995589e+02  1.08e-04 7.11e-11  1.18e-10   245s
 216   8.12995707e+02  8.12995589e+02  9.98e-05 6.69e-11  1.09e-10   246s
 217   8.12995669e+02  8.12995589e+02  1.09e-04 6.31e-11  1.03e-10   247s
 218   8.12995694e+02  8.12995589e+02  9.05e-05 6.15e-11  9.82e-11   248s

Barrier performed 218 iterations in 248.38 seconds (147.87 work units)
Sub-optimal termination - objective 8.13009813e+02

/user/bnickson/GitHub/LUVex_TelAps/aplc_optimization/surveys/usort_offaxis_survey_N0128_telserv3/FPM35_IWA34/drivers/08_USORT_N128_FPM350M0150_IWA0340_OWA01400_C10_BW20_Nlam5_LS_ID_ID00_ODOD09_ls_0_ovsamp16_N.py:102: DeprecationWarning: circular_aperture is deprecated. Its new name is make_circular_aperture.
  dark_zone_mask = circular_aperture(img_owa * 2)(focal_grid) - circular_aperture(img_iwa * 2)(focal_grid)
/user/bnickson/GitHub/LUVex_TelAps/aplc_optimization/surveys/usort_offaxis_survey_N0128_telserv3/FPM35_IWA34/drivers/08_USORT_N128_FPM350M0150_IWA0340_OWA01400_C10_BW20_Nlam5_LS_ID_ID00_ODOD09_ls_0_ovsamp16_N.py:110: DeprecationWarning: circular_aperture is deprecated. Its new name is make_circular_aperture.
  focal_plane_mask = 1 - evaluate_supersampled(circular_aperture(2 * fpm_radius), focal_mask_grid, 8)
WARNING: VerifyWarning: Keyword name 'LS_ALIGN_TOl' is greater than 8 characters or contains characters not allowed by the FITS standard; a HIERARCH card will be created. [astropy.io.fits.card]
WARNING: VerifyWarning: Keyword name 'LS_NUM_STOPS' is greater than 8 characters or contains characters not allowed by the FITS standard; a HIERARCH card will be created. [astropy.io.fits.card]
WARNING: VerifyWarning: Keyword name 'PROG_START' is greater than 8 characters or contains characters not allowed by the FITS standard; a HIERARCH card will be created. [astropy.io.fits.card]
WARNING: VerifyWarning: Keyword name 'PROG_EDGE' is greater than 8 characters or contains characters not allowed by the FITS standard; a HIERARCH card will be created. [astropy.io.fits.card]
WARNING: VerifyWarning: Keyword name 'THRPT_ITER' is greater than 8 characters or contains characters not allowed by the FITS standard; a HIERARCH card will be created. [astropy.io.fits.card]
WARNING: VerifyWarning: Keyword name 'THRPT_ESTIM' is greater than 8 characters or contains characters not allowed by the FITS standard; a HIERARCH card will be created. [astropy.io.fits.card]
WARNING: VerifyWarning: Keyword name 'MAX_THRPT' is greater than 8 characters or contains characters not allowed by the FITS standard; a HIERARCH card will be created. [astropy.io.fits.card]
WARNING: VerifyWarning: Keyword name 'SLV_THRDS' is greater than 8 characters or contains characters not allowed by the FITS standard; a HIERARCH card will be created. [astropy.io.fits.card]
WARNING: VerifyWarning: Keyword name 'SLV_XOVER' is greater than 8 characters or contains characters not allowed by the FITS standard; a HIERARCH card will be created. [astropy.io.fits.card]
Optimization finished!
